/*********************************************
 * OPL 12.6.0.0 Data
 * Author: Adrian Rodriguez Bazaga, Pau Rodriguez Esmerats
 * Creation Date: 10/12/2017 at 12:53:51
 *********************************************/

maxConsec=10;
maxPresence=16;
maxHours=10;
minHours=1;
hours=24;
demand= [27 37 38 30 28 29 28 35 36 32 25 16 13 4 4 1 4 1 2 0 1 0 1 0  ];
nNurses=64;
